#pLT is two-dimensional [i,r]=[component, individual]
#[i,*] means all data in row i.

param pLT := 
[1,*]
1  0    2  4    3  7    4  2    5  7    6  8    

[2,*]
1  1    2  5    3  2    4  5    5  5    6  2    
;